c Result of efficient AIG-to-CNF conversion using package CNF
p cnf 771 2623
2 -648 -649 0
2 -3 620 -649 0
2 3 -620 -649 0
-2 649 0
-2 3 620 648 0
-2 -3 -620 648 0
3 770 -4 0
3 -770 4 0
-3 -770 -4 0
-3 770 4 0
4 5 -576 0
4 -5 576 0
-4 -5 -576 0
-4 5 576 0
-5 6 526 0
5 -6 0
5 -526 0
6 -7 482 0
-6 7 0
-6 -482 0
7 8 -445 0
-7 -8 0
-7 445 0
-8 9 404 0
-8 -9 -404 0
8 -9 404 0
8 9 -404 0
9 10 -366 0
-9 -10 0
-9 366 0
-10 11 332 0
-10 -11 -332 0
10 -11 332 0
10 11 -332 0
11 12 -299 0
-11 -12 0
-11 299 0
-12 13 266 0
-12 -13 -266 0
12 -13 266 0
12 13 -266 0
13 -14 238 0
-13 14 0
-13 -238 0
14 15 -210 0
-14 -15 0
-14 210 0
-15 16 184 0
-15 -16 -184 0
15 -16 184 0
15 16 -184 0
16 17 -158 0
-16 -17 0
-16 158 0
-17 18 138 0
-17 -18 -138 0
17 -18 138 0
17 18 -138 0
18 -19 117 0
-18 19 0
-18 -117 0
19 -20 101 0
-19 20 0
-19 -101 0
20 -21 86 0
-20 21 0
-20 -86 0
21 -22 68 0
-21 22 0
-21 -68 0
22 23 -61 0
-22 -23 0
-22 61 0
-23 24 54 0
-23 -24 -54 0
23 -24 54 0
23 24 -54 0
24 25 -39 0
-24 -25 0
-24 39 0
-25 26 29 0
-25 -26 -29 0
25 -26 29 0
25 26 -29 0
26 753 760 -761 27 0
-26 -753 0
-26 -27 0
-26 761 0
-26 -760 0
-27 754 759 28 0
27 -28 0
27 -759 0
27 -754 0
-28 755 756 757 758 0
28 -758 0
28 -757 0
28 -755 0
28 -756 0
-29 30 32 0
-29 -30 -32 0
29 -30 32 0
29 30 -32 0
30 -760 31 0
-30 760 0
-30 -31 0
-31 753 27 0
31 -753 0
31 -27 0
-32 -33 -38 0
-32 33 38 0
32 33 -38 0
32 -33 38 0
33 34 -36 0
33 752 -36 0
-33 36 0
-33 -752 -34 0
-34 757 758 35 0
34 -35 0
34 -758 0
34 -757 0
-35 753 754 755 756 0
35 -756 0
35 -755 0
35 -753 0
35 -754 0
-36 758 37 0
36 -758 0
36 -37 0
-37 752 757 35 0
37 -35 0
37 -757 0
37 -752 0
38 -759 34 0
-38 759 0
-38 -34 0
39 40 -45 0
-39 -40 0
-39 45 0
-40 -42 -43 0
-40 -41 42 0
-40 761 42 0
40 -42 43 0
40 -761 41 42 0
-41 760 27 0
41 -760 0
41 -27 0
-42 -753 -760 0
-42 -753 -27 0
-42 753 760 27 0
42 753 -760 0
42 753 -27 0
42 -753 760 27 0
43 -761 41 44 0
-43 761 0
-43 -41 0
-43 -44 0
-44 759 760 28 0
44 -28 0
44 -760 0
44 -759 0
45 46 -49 0
-45 -46 0
-45 49 0
-46 -47 -48 0
-46 47 48 0
46 47 -48 0
46 -47 48 0
47 -41 44 0
47 754 -41 0
-47 41 0
-47 -754 -44 0
48 -761 44 0
-48 761 0
-48 -44 0
49 -762 50 0
-49 762 0
-49 -50 0
-50 755 51 0
50 -755 0
50 -51 0
-51 756 761 52 53 0
51 -756 0
51 -53 0
51 -52 0
51 -761 0
-52 757 758 0
52 -757 0
52 -758 0
-53 759 760 0
53 -759 0
53 -760 0
-54 55 56 0
-54 -55 -56 0
54 -55 56 0
54 55 -56 0
55 -26 29 0
-55 26 0
-55 -29 0
-56 57 58 0
-56 -57 -58 0
56 -57 58 0
56 57 -58 0
57 -30 32 0
-57 30 0
-57 -32 0
-58 -36 60 0
-58 -59 -60 0
-58 759 60 0
58 59 -60 0
58 -759 36 60 0
59 -759 34 36 0
-59 759 0
-59 -34 0
-59 -36 0
-60 -751 -758 0
-60 -751 -37 0
-60 751 758 37 0
60 751 -758 0
60 751 -37 0
60 -751 758 37 0
61 62 -63 0
-61 -62 0
-61 63 0
-62 -25 -39 0
-62 25 39 0
62 25 -39 0
62 -25 39 0
63 64 -65 0
-63 -64 0
-63 65 0
-64 -40 -45 0
-64 40 45 0
64 40 -45 0
64 -40 45 0
65 66 -67 0
-65 -66 0
-65 67 0
-66 -46 -49 0
-66 46 49 0
66 46 -49 0
66 -46 49 0
67 755 762 -763 51 0
-67 -755 0
-67 -51 0
-67 763 0
-67 -762 0
-68 69 70 0
-68 -69 -70 0
68 -69 70 0
68 69 -70 0
69 -24 54 0
-69 24 0
-69 -54 0
-70 71 72 0
-70 -71 -72 0
70 -71 72 0
70 71 -72 0
71 -55 56 0
-71 55 0
-71 -56 0
-72 73 74 0
-72 -73 -74 0
72 -73 74 0
72 73 -74 0
73 -57 58 0
-73 57 0
-73 -58 0
-74 75 76 0
-74 -75 -76 0
74 -75 76 0
74 75 -76 0
75 751 758 -759 37 0
-75 -751 0
-75 -37 0
-75 759 0
-75 -758 0
-76 77 79 0
-76 -77 -79 0
76 -77 79 0
76 77 -79 0
77 -758 78 0
-77 758 0
-77 -78 0
-78 751 37 0
78 -751 0
78 -37 0
-79 -80 -85 0
-79 80 85 0
79 80 -85 0
79 -80 85 0
80 81 -83 0
80 750 -83 0
-80 83 0
-80 -750 -81 0
-81 755 756 82 0
81 -82 0
81 -756 0
81 -755 0
-82 751 752 753 754 0
82 -754 0
82 -753 0
82 -751 0
82 -752 0
-83 756 84 0
83 -756 0
83 -84 0
-84 750 755 82 0
84 -82 0
84 -755 0
84 -750 0
85 -757 81 0
-85 757 0
-85 -81 0
-86 87 88 0
-86 -87 -88 0
86 -87 88 0
86 87 -88 0
87 -69 70 0
-87 69 0
-87 -70 0
-88 89 90 0
-88 -89 -90 0
88 -89 90 0
88 89 -90 0
89 -71 72 0
-89 71 0
-89 -72 0
-90 91 92 0
-90 -91 -92 0
90 -91 92 0
90 91 -92 0
91 -73 74 0
-91 73 0
-91 -74 0
-92 93 94 0
-92 -93 -94 0
92 -93 94 0
92 93 -94 0
93 -75 76 0
-93 75 0
-93 -76 0
-94 95 96 0
-94 -95 -96 0
94 -95 96 0
94 95 -96 0
95 -77 79 0
-95 77 0
-95 -79 0
-96 -97 100 0
-96 98 100 0
96 -100 0
96 97 -98 0
97 -757 81 83 0
-97 757 0
-97 -81 0
-97 -83 0
-98 756 99 0
-98 -749 -83 -99 0
98 83 -99 0
98 -756 99 0
98 749 -99 0
-99 749 84 0
99 -749 0
99 -84 0
100 749 756 -757 84 0
-100 -749 0
-100 -84 0
-100 757 0
-100 -756 0
-101 102 103 0
-101 -102 -103 0
101 -102 103 0
101 102 -103 0
102 -87 88 0
-102 87 0
-102 -88 0
-103 104 105 0
-103 -104 -105 0
103 -104 105 0
103 104 -105 0
104 -89 90 0
-104 89 0
-104 -90 0
-105 106 107 0
-105 -106 -107 0
105 -106 107 0
105 106 -107 0
106 -91 92 0
-106 91 0
-106 -92 0
-107 108 109 0
-107 -108 -109 0
107 -108 109 0
107 108 -109 0
108 -93 94 0
-108 93 0
-108 -94 0
-109 110 111 0
-109 -110 -111 0
109 -110 111 0
109 110 -111 0
110 -95 96 0
-110 95 0
-110 -96 0
-111 100 112 0
-111 -100 -112 0
111 -100 112 0
111 100 -112 0
-112 113 114 0
-112 -113 -114 0
112 -113 114 0
112 113 -114 0
113 -756 99 0
-113 756 0
-113 -99 0
-114 755 115 0
-114 -748 -99 -115 0
114 99 -115 0
114 -755 115 0
114 748 -115 0
-115 748 749 754 116 0
115 -116 0
115 -754 0
115 -748 0
115 -749 0
-116 750 751 752 753 0
116 -753 0
116 -752 0
116 -750 0
116 -751 0
-117 118 119 0
-117 -118 -119 0
117 -118 119 0
117 118 -119 0
118 -102 103 0
-118 102 0
-118 -103 0
-119 120 121 0
-119 -120 -121 0
119 -120 121 0
119 120 -121 0
120 -104 105 0
-120 104 0
-120 -105 0
-121 122 123 0
-121 -122 -123 0
121 -122 123 0
121 122 -123 0
122 -106 107 0
-122 106 0
-122 -107 0
-123 124 125 0
-123 -124 -125 0
123 -124 125 0
123 124 -125 0
124 -108 109 0
-124 108 0
-124 -109 0
-125 126 127 0
-125 -126 -127 0
125 -126 127 0
125 126 -127 0
126 -110 111 0
-126 110 0
-126 -111 0
-127 128 129 0
-127 -128 -129 0
127 -128 129 0
127 128 -129 0
128 -100 112 0
-128 100 0
-128 -112 0
-129 130 131 0
-129 -130 -131 0
129 -130 131 0
129 130 -131 0
130 -113 114 0
-130 113 0
-130 -114 0
-131 132 133 0
-131 -132 -133 0
131 -132 133 0
131 132 -133 0
132 -755 115 0
-132 755 0
-132 -115 0
-133 134 135 0
-133 -134 -135 0
133 -134 135 0
133 134 -135 0
134 748 749 -754 116 0
-134 -748 0
-134 -116 0
-134 754 0
-134 -749 0
-135 -747 -753 0
-135 -747 -136 0
-135 747 753 136 0
135 747 -753 0
135 747 -136 0
135 -747 753 136 0
-136 748 749 750 137 0
136 -137 0
136 -750 0
136 -748 0
136 -749 0
-137 751 752 0
137 -751 0
137 -752 0
-138 139 140 0
-138 -139 -140 0
138 -139 140 0
138 139 -140 0
139 -118 119 0
-139 118 0
-139 -119 0
-140 141 142 0
-140 -141 -142 0
140 -141 142 0
140 141 -142 0
141 -120 121 0
-141 120 0
-141 -121 0
-142 143 144 0
-142 -143 -144 0
142 -143 144 0
142 143 -144 0
143 -122 123 0
-143 122 0
-143 -123 0
-144 145 146 0
-144 -145 -146 0
144 -145 146 0
144 145 -146 0
145 -124 125 0
-145 124 0
-145 -125 0
-146 147 148 0
-146 -147 -148 0
146 -147 148 0
146 147 -148 0
147 -126 127 0
-147 126 0
-147 -127 0
-148 149 150 0
-148 -149 -150 0
148 -149 150 0
148 149 -150 0
149 -128 129 0
-149 128 0
-149 -129 0
-150 151 152 0
-150 -151 -152 0
150 -151 152 0
150 151 -152 0
151 -130 131 0
-151 130 0
-151 -131 0
-152 153 154 0
-152 -153 -154 0
152 -153 154 0
152 153 -154 0
153 -132 133 0
-153 132 0
-153 -133 0
-154 155 156 0
-154 -155 -156 0
154 -155 156 0
154 155 -156 0
155 -134 135 0
-155 134 0
-155 -135 0
-156 -746 -753 0
-156 -746 -157 0
-156 746 753 157 0
156 746 -753 0
156 746 -157 0
156 -746 753 157 0
-157 747 136 0
157 -747 0
157 -136 0
158 159 -160 0
-158 -159 0
-158 160 0
-159 19 117 0
-159 -19 -117 0
159 -19 117 0
159 19 -117 0
160 161 -162 0
-160 -161 0
-160 162 0
-161 20 101 0
-161 -20 -101 0
161 -20 101 0
161 20 -101 0
162 163 -164 0
-162 -163 0
-162 164 0
-163 21 86 0
-163 -21 -86 0
163 -21 86 0
163 21 -86 0
164 165 -166 0
-164 -165 0
-164 166 0
-165 22 68 0
-165 -22 -68 0
165 -22 68 0
165 22 -68 0
166 167 -168 0
-166 -167 0
-166 168 0
-167 -23 -61 0
-167 23 61 0
167 23 -61 0
167 -23 61 0
168 169 -170 0
-168 -169 0
-168 170 0
-169 -62 -63 0
-169 62 63 0
169 62 -63 0
169 -62 63 0
170 171 -172 0
-170 -171 0
-170 172 0
-171 -64 -65 0
-171 64 65 0
171 64 -65 0
171 -64 65 0
172 173 -174 0
-172 -173 0
-172 174 0
-173 -66 -67 0
-173 66 67 0
173 66 -67 0
173 -66 67 0
174 175 -179 0
-174 -175 0
-174 179 0
-175 -176 -177 0
-175 176 177 0
175 176 -177 0
175 -176 177 0
-176 -755 -762 0
-176 -755 -51 0
-176 755 762 51 0
176 755 -762 0
176 755 -51 0
176 -755 762 51 0
177 -763 178 0
-177 763 0
-177 -178 0
-178 762 51 0
178 -762 0
178 -51 0
179 -764 180 183 0
-179 764 0
-179 -180 0
-179 -183 0
-180 757 181 0
180 -757 0
180 -181 0
-181 758 763 182 0
181 -182 0
181 -763 0
181 -758 0
-182 759 760 761 762 0
182 -762 0
182 -761 0
182 -759 0
182 -760 0
-183 763 178 0
-183 -756 -178 -180 0
183 -763 178 0
183 -178 180 0
183 756 -178 0
-184 185 186 0
-184 -185 -186 0
184 -185 186 0
184 185 -186 0
185 -18 138 0
-185 18 0
-185 -138 0
-186 187 188 0
-186 -187 -188 0
186 -187 188 0
186 187 -188 0
187 -139 140 0
-187 139 0
-187 -140 0
-188 189 190 0
-188 -189 -190 0
188 -189 190 0
188 189 -190 0
189 -141 142 0
-189 141 0
-189 -142 0
-190 191 192 0
-190 -191 -192 0
190 -191 192 0
190 191 -192 0
191 -143 144 0
-191 143 0
-191 -144 0
-192 193 194 0
-192 -193 -194 0
192 -193 194 0
192 193 -194 0
193 -145 146 0
-193 145 0
-193 -146 0
-194 195 196 0
-194 -195 -196 0
194 -195 196 0
194 195 -196 0
195 -147 148 0
-195 147 0
-195 -148 0
-196 197 198 0
-196 -197 -198 0
196 -197 198 0
196 197 -198 0
197 -149 150 0
-197 149 0
-197 -150 0
-198 199 200 0
-198 -199 -200 0
198 -199 200 0
198 199 -200 0
199 -151 152 0
-199 151 0
-199 -152 0
-200 201 202 0
-200 -201 -202 0
200 -201 202 0
200 201 -202 0
201 -153 154 0
-201 153 0
-201 -154 0
-202 203 204 0
-202 -203 -204 0
202 -203 204 0
202 203 -204 0
203 -155 156 0
-203 155 0
-203 -156 0
-204 205 207 0
-204 -205 -207 0
204 -205 207 0
204 205 -207 0
205 -753 206 0
-205 753 0
-205 -206 0
-206 746 157 0
206 -746 0
206 -157 0
-207 -745 -751 0
-207 745 751 752 208 0
-207 -745 -752 0
-207 -745 -208 0
207 745 -208 0
207 -745 751 752 208 0
207 745 -751 0
207 745 -752 0
-208 748 749 750 209 0
208 -209 0
208 -750 0
208 -748 0
208 -749 0
-209 746 747 0
209 -746 0
209 -747 0
210 211 -212 0
-210 -211 0
-210 212 0
-211 -17 -158 0
-211 17 158 0
211 17 -158 0
211 -17 158 0
212 -213 237 0
-212 213 0
-212 -237 0
213 -214 236 0
-213 214 0
-213 -236 0
214 215 -216 0
-214 -215 0
-214 216 0
-215 -163 -164 0
-215 163 164 0
215 163 -164 0
215 -163 164 0
216 217 -218 0
-216 -217 0
-216 218 0
-217 -165 -166 0
-217 165 166 0
217 165 -166 0
217 -165 166 0
218 219 -220 0
-218 -219 0
-218 220 0
-219 -167 -168 0
-219 167 168 0
219 167 -168 0
219 -167 168 0
220 -221 235 0
-220 221 0
-220 -235 0
221 222 -223 0
-221 -222 0
-221 223 0
-222 -171 -172 0
-222 171 172 0
222 171 -172 0
222 -171 172 0
223 224 -225 0
-223 -224 0
-223 225 0
-224 -173 -174 0
-224 173 174 0
224 173 -174 0
224 -173 174 0
225 226 -227 0
-225 -226 0
-225 227 0
-226 -175 -179 0
-226 175 179 0
226 175 -179 0
226 -175 179 0
227 228 -230 0
-227 -228 0
-227 230 0
-228 -183 -229 0
-228 -180 183 0
-228 764 183 0
228 -183 229 0
228 -764 180 183 0
229 757 -764 181 0
-229 -181 0
-229 764 0
-229 -757 0
230 231 -232 0
-230 -231 0
-230 232 0
-231 -757 -764 0
-231 -757 -181 0
-231 757 764 181 0
231 757 -764 0
231 757 -181 0
231 -757 764 181 0
232 -765 233 0
-232 765 0
-232 -233 0
-233 758 182 234 0
233 -234 0
233 -182 0
233 -758 0
-234 763 764 0
234 -763 0
234 -764 0
-235 -169 -170 0
-235 169 170 0
235 169 -170 0
235 -169 170 0
-236 -161 -162 0
-236 161 162 0
236 161 -162 0
236 -161 162 0
-237 -159 -160 0
-237 159 160 0
237 159 -160 0
237 -159 160 0
-238 239 240 0
-238 -239 -240 0
238 -239 240 0
238 239 -240 0
239 -16 184 0
-239 16 0
-239 -184 0
-240 241 242 0
-240 -241 -242 0
240 -241 242 0
240 241 -242 0
241 -185 186 0
-241 185 0
-241 -186 0
-242 243 244 0
-242 -243 -244 0
242 -243 244 0
242 243 -244 0
243 -187 188 0
-243 187 0
-243 -188 0
-244 245 246 0
-244 -245 -246 0
244 -245 246 0
244 245 -246 0
245 -189 190 0
-245 189 0
-245 -190 0
-246 247 248 0
-246 -247 -248 0
246 -247 248 0
246 247 -248 0
247 -191 192 0
-247 191 0
-247 -192 0
-248 249 250 0
-248 -249 -250 0
248 -249 250 0
248 249 -250 0
249 -193 194 0
-249 193 0
-249 -194 0
-250 251 252 0
-250 -251 -252 0
250 -251 252 0
250 251 -252 0
251 -195 196 0
-251 195 0
-251 -196 0
-252 253 254 0
-252 -253 -254 0
252 -253 254 0
252 253 -254 0
253 -197 198 0
-253 197 0
-253 -198 0
-254 255 256 0
-254 -255 -256 0
254 -255 256 0
254 255 -256 0
255 -199 200 0
-255 199 0
-255 -200 0
-256 257 258 0
-256 -257 -258 0
256 -257 258 0
256 257 -258 0
257 -201 202 0
-257 201 0
-257 -202 0
-258 259 260 0
-258 -259 -260 0
258 -259 260 0
258 259 -260 0
259 -203 204 0
-259 203 0
-259 -204 0
-260 261 262 0
-260 -261 -262 0
260 -261 262 0
260 261 -262 0
261 -205 207 0
-261 205 0
-261 -207 0
-262 263 264 0
-262 -263 -264 0
262 -263 264 0
262 263 -264 0
263 745 751 -752 208 0
-263 -745 0
-263 -208 0
-263 752 0
-263 -751 0
-264 -744 -751 0
-264 -744 -265 0
-264 744 751 265 0
264 744 -751 0
264 744 -265 0
264 -744 751 265 0
-265 745 208 0
265 -745 0
265 -208 0
-266 267 268 0
-266 -267 -268 0
266 -267 268 0
266 267 -268 0
267 -239 240 0
-267 239 0
-267 -240 0
-268 269 270 0
-268 -269 -270 0
268 -269 270 0
268 269 -270 0
269 -241 242 0
-269 241 0
-269 -242 0
-270 271 272 0
-270 -271 -272 0
270 -271 272 0
270 271 -272 0
271 -243 244 0
-271 243 0
-271 -244 0
-272 273 274 0
-272 -273 -274 0
272 -273 274 0
272 273 -274 0
273 -245 246 0
-273 245 0
-273 -246 0
-274 275 276 0
-274 -275 -276 0
274 -275 276 0
274 275 -276 0
275 -247 248 0
-275 247 0
-275 -248 0
-276 277 278 0
-276 -277 -278 0
276 -277 278 0
276 277 -278 0
277 -249 250 0
-277 249 0
-277 -250 0
-278 279 280 0
-278 -279 -280 0
278 -279 280 0
278 279 -280 0
279 -251 252 0
-279 251 0
-279 -252 0
-280 281 282 0
-280 -281 -282 0
280 -281 282 0
280 281 -282 0
281 -253 254 0
-281 253 0
-281 -254 0
-282 283 284 0
-282 -283 -284 0
282 -283 284 0
282 283 -284 0
283 -255 256 0
-283 255 0
-283 -256 0
-284 285 286 0
-284 -285 -286 0
284 -285 286 0
284 285 -286 0
285 -257 258 0
-285 257 0
-285 -258 0
-286 287 288 0
-286 -287 -288 0
286 -287 288 0
286 287 -288 0
287 -259 260 0
-287 259 0
-287 -260 0
-288 289 290 0
-288 -289 -290 0
288 -289 290 0
288 289 -290 0
289 -261 262 0
-289 261 0
-289 -262 0
-290 291 292 0
-290 -291 -292 0
290 -291 292 0
290 291 -292 0
291 -263 264 0
-291 263 0
-291 -264 0
-292 293 295 0
-292 -293 -295 0
292 -293 295 0
292 293 -295 0
293 -751 294 0
-293 751 0
-293 -294 0
-294 744 265 0
294 -744 0
294 -265 0
-295 -743 -750 0
-295 -743 -296 0
-295 743 750 296 0
295 743 -750 0
295 743 -296 0
295 -743 750 296 0
-296 749 297 0
296 -749 0
296 -297 0
-297 748 298 0
297 -748 0
297 -298 0
-298 744 745 746 747 0
298 -747 0
298 -746 0
298 -744 0
298 -745 0
299 -300 331 0
-299 300 0
-299 -331 0
300 -301 330 0
-300 301 0
-300 -330 0
301 302 -303 0
-301 -302 0
-301 303 0
-302 -211 -212 0
-302 211 212 0
302 211 -212 0
302 -211 212 0
303 304 -305 0
-303 -304 0
-303 305 0
-304 213 237 0
-304 -213 -237 0
304 -213 237 0
304 213 -237 0
305 306 -307 0
-305 -306 0
-305 307 0
-306 214 236 0
-306 -214 -236 0
306 -214 236 0
306 214 -236 0
307 308 -309 0
-307 -308 0
-307 309 0
-308 -215 -216 0
-308 215 216 0
308 215 -216 0
308 -215 216 0
309 310 -311 0
-309 -310 0
-309 311 0
-310 -217 -218 0
-310 217 218 0
310 217 -218 0
310 -217 218 0
311 312 -313 0
-311 -312 0
-311 313 0
-312 -219 -220 0
-312 219 220 0
312 219 -220 0
312 -219 220 0
313 314 -315 0
-313 -314 0
-313 315 0
-314 221 235 0
-314 -221 -235 0
314 -221 235 0
314 221 -235 0
315 -316 329 0
-315 316 0
-315 -329 0
316 317 -318 0
-316 -317 0
-316 318 0
-317 -224 -225 0
-317 224 225 0
317 224 -225 0
317 -224 225 0
318 319 -320 0
-318 -319 0
-318 320 0
-319 -226 -227 0
-319 226 227 0
319 226 -227 0
319 -226 227 0
320 321 -322 0
-320 -321 0
-320 322 0
-321 -228 -230 0
-321 228 230 0
321 228 -230 0
321 -228 230 0
322 323 -324 0
-322 -323 0
-322 324 0
-323 -231 -232 0
-323 231 232 0
323 231 -232 0
323 -231 232 0
324 -766 325 328 0
-324 766 0
-324 -325 0
-324 -328 0
-325 759 326 0
325 -759 0
325 -326 0
-326 760 765 327 0
326 -327 0
326 -765 0
326 -760 0
-327 761 762 234 0
327 -234 0
327 -762 0
327 -761 0
-328 765 233 0
-328 -758 -233 -325 0
328 -765 233 0
328 -233 325 0
328 758 -233 0
-329 -222 -223 0
-329 222 223 0
329 222 -223 0
329 -222 223 0
-330 -15 -210 0
-330 15 210 0
330 15 -210 0
330 -15 210 0
-331 14 238 0
-331 -14 -238 0
331 -14 238 0
331 14 -238 0
-332 333 334 0
-332 -333 -334 0
332 -333 334 0
332 333 -334 0
333 -13 266 0
-333 13 0
-333 -266 0
-334 335 336 0
-334 -335 -336 0
334 -335 336 0
334 335 -336 0
335 -267 268 0
-335 267 0
-335 -268 0
-336 337 338 0
-336 -337 -338 0
336 -337 338 0
336 337 -338 0
337 -269 270 0
-337 269 0
-337 -270 0
-338 339 340 0
-338 -339 -340 0
338 -339 340 0
338 339 -340 0
339 -271 272 0
-339 271 0
-339 -272 0
-340 341 342 0
-340 -341 -342 0
340 -341 342 0
340 341 -342 0
341 -273 274 0
-341 273 0
-341 -274 0
-342 343 344 0
-342 -343 -344 0
342 -343 344 0
342 343 -344 0
343 -275 276 0
-343 275 0
-343 -276 0
-344 345 346 0
-344 -345 -346 0
344 -345 346 0
344 345 -346 0
345 -277 278 0
-345 277 0
-345 -278 0
-346 347 348 0
-346 -347 -348 0
346 -347 348 0
346 347 -348 0
347 -279 280 0
-347 279 0
-347 -280 0
-348 349 350 0
-348 -349 -350 0
348 -349 350 0
348 349 -350 0
349 -281 282 0
-349 281 0
-349 -282 0
-350 351 352 0
-350 -351 -352 0
350 -351 352 0
350 351 -352 0
351 -283 284 0
-351 283 0
-351 -284 0
-352 353 354 0
-352 -353 -354 0
352 -353 354 0
352 353 -354 0
353 -285 286 0
-353 285 0
-353 -286 0
-354 355 356 0
-354 -355 -356 0
354 -355 356 0
354 355 -356 0
355 -287 288 0
-355 287 0
-355 -288 0
-356 357 358 0
-356 -357 -358 0
356 -357 358 0
356 357 -358 0
357 -289 290 0
-357 289 0
-357 -290 0
-358 359 360 0
-358 -359 -360 0
358 -359 360 0
358 359 -360 0
359 -291 292 0
-359 291 0
-359 -292 0
-360 361 362 0
-360 -361 -362 0
360 -361 362 0
360 361 -362 0
361 -293 295 0
-361 293 0
-361 -295 0
-362 363 364 0
-362 -363 -364 0
362 -363 364 0
362 363 -364 0
363 743 -750 296 0
-363 -296 0
-363 750 0
-363 -743 0
-364 -742 -749 0
-364 -742 -365 0
-364 742 749 365 0
364 742 -749 0
364 742 -365 0
364 -742 749 365 0
-365 743 297 0
365 -743 0
365 -297 0
366 -367 403 0
-366 367 0
-366 -403 0
367 368 -369 0
-367 -368 0
-367 369 0
-368 300 331 0
-368 -300 -331 0
368 -300 331 0
368 300 -331 0
369 370 -371 0
-369 -370 0
-369 371 0
-370 301 330 0
-370 -301 -330 0
370 -301 330 0
370 301 -330 0
371 372 -373 0
-371 -372 0
-371 373 0
-372 -302 -303 0
-372 302 303 0
372 302 -303 0
372 -302 303 0
373 374 -375 0
-373 -374 0
-373 375 0
-374 -304 -305 0
-374 304 305 0
374 304 -305 0
374 -304 305 0
375 376 -377 0
-375 -376 0
-375 377 0
-376 -306 -307 0
-376 306 307 0
376 306 -307 0
376 -306 307 0
377 378 -379 0
-377 -378 0
-377 379 0
-378 -308 -309 0
-378 308 309 0
378 308 -309 0
378 -308 309 0
379 380 -381 0
-379 -380 0
-379 381 0
-380 -310 -311 0
-380 310 311 0
380 310 -311 0
380 -310 311 0
381 382 -383 0
-381 -382 0
-381 383 0
-382 -312 -313 0
-382 312 313 0
382 312 -313 0
382 -312 313 0
383 384 -385 0
-383 -384 0
-383 385 0
-384 -314 -315 0
-384 314 315 0
384 314 -315 0
384 -314 315 0
385 386 -387 0
-385 -386 0
-385 387 0
-386 316 329 0
-386 -316 -329 0
386 -316 329 0
386 316 -329 0
387 -388 402 0
-387 388 0
-387 -402 0
388 389 -390 0
-388 -389 0
-388 390 0
-389 -319 -320 0
-389 319 320 0
389 319 -320 0
389 -319 320 0
390 391 -392 0
-390 -391 0
-390 392 0
-391 -321 -322 0
-391 321 322 0
391 321 -322 0
391 -321 322 0
392 393 -394 0
-392 -393 0
-392 394 0
-393 -323 -324 0
-393 323 324 0
393 323 -324 0
393 -323 324 0
394 395 -397 0
-394 -395 0
-394 397 0
-395 -328 -396 0
-395 -325 328 0
-395 766 328 0
395 -328 396 0
395 -766 325 328 0
396 759 -766 326 0
-396 -326 0
-396 766 0
-396 -759 0
397 398 -399 0
-397 -398 0
-397 399 0
-398 -759 -766 0
-398 -759 -326 0
-398 759 766 326 0
398 759 -766 0
398 759 -326 0
398 -759 766 326 0
399 -767 400 0
-399 767 0
-399 -400 0
-400 760 401 0
400 -760 0
400 -401 0
-401 765 766 327 0
401 -327 0
401 -766 0
401 -765 0
-402 -317 -318 0
-402 317 318 0
402 317 -318 0
402 -317 318 0
-403 -12 -299 0
-403 12 299 0
403 12 -299 0
403 -12 299 0
-404 405 406 0
-404 -405 -406 0
404 -405 406 0
404 405 -406 0
405 -11 332 0
-405 11 0
-405 -332 0
-406 407 408 0
-406 -407 -408 0
406 -407 408 0
406 407 -408 0
407 -333 334 0
-407 333 0
-407 -334 0
-408 409 410 0
-408 -409 -410 0
408 -409 410 0
408 409 -410 0
409 -335 336 0
-409 335 0
-409 -336 0
-410 411 412 0
-410 -411 -412 0
410 -411 412 0
410 411 -412 0
411 -337 338 0
-411 337 0
-411 -338 0
-412 413 414 0
-412 -413 -414 0
412 -413 414 0
412 413 -414 0
413 -339 340 0
-413 339 0
-413 -340 0
-414 415 416 0
-414 -415 -416 0
414 -415 416 0
414 415 -416 0
415 -341 342 0
-415 341 0
-415 -342 0
-416 417 418 0
-416 -417 -418 0
416 -417 418 0
416 417 -418 0
417 -343 344 0
-417 343 0
-417 -344 0
-418 419 420 0
-418 -419 -420 0
418 -419 420 0
418 419 -420 0
419 -345 346 0
-419 345 0
-419 -346 0
-420 421 422 0
-420 -421 -422 0
420 -421 422 0
420 421 -422 0
421 -347 348 0
-421 347 0
-421 -348 0
-422 423 424 0
-422 -423 -424 0
422 -423 424 0
422 423 -424 0
423 -349 350 0
-423 349 0
-423 -350 0
-424 425 426 0
-424 -425 -426 0
424 -425 426 0
424 425 -426 0
425 -351 352 0
-425 351 0
-425 -352 0
-426 427 428 0
-426 -427 -428 0
426 -427 428 0
426 427 -428 0
427 -353 354 0
-427 353 0
-427 -354 0
-428 429 430 0
-428 -429 -430 0
428 -429 430 0
428 429 -430 0
429 -355 356 0
-429 355 0
-429 -356 0
-430 431 432 0
-430 -431 -432 0
430 -431 432 0
430 431 -432 0
431 -357 358 0
-431 357 0
-431 -358 0
-432 433 434 0
-432 -433 -434 0
432 -433 434 0
432 433 -434 0
433 -359 360 0
-433 359 0
-433 -360 0
-434 435 436 0
-434 -435 -436 0
434 -435 436 0
434 435 -436 0
435 -361 362 0
-435 361 0
-435 -362 0
-436 437 438 0
-436 -437 -438 0
436 -437 438 0
436 437 -438 0
437 -363 364 0
-437 363 0
-437 -364 0
-438 439 440 0
-438 -439 -440 0
438 -439 440 0
438 439 -440 0
439 742 -749 365 0
-439 -365 0
-439 749 0
-439 -742 0
-440 441 442 0
-440 -441 -442 0
440 -441 442 0
440 441 -442 0
441 742 743 -748 298 0
-441 -742 0
-441 -298 0
-441 748 0
-441 -743 0
-442 -741 -747 0
-442 -741 -443 0
-442 741 747 443 0
442 741 -747 0
442 741 -443 0
442 -741 747 443 0
-443 742 743 746 444 0
443 -444 0
443 -746 0
443 -742 0
443 -743 0
-444 744 745 0
444 -744 0
444 -745 0
445 446 -447 0
-445 -446 0
-445 447 0
-446 -10 -366 0
-446 10 366 0
446 10 -366 0
446 -10 366 0
447 -448 481 0
-447 448 0
-447 -481 0
448 -449 480 0
-448 449 0
-448 -480 0
449 450 -451 0
-449 -450 0
-449 451 0
-450 -370 -371 0
-450 370 371 0
450 370 -371 0
450 -370 371 0
451 452 -453 0
-451 -452 0
-451 453 0
-452 -372 -373 0
-452 372 373 0
452 372 -373 0
452 -372 373 0
453 454 -455 0
-453 -454 0
-453 455 0
-454 -374 -375 0
-454 374 375 0
454 374 -375 0
454 -374 375 0
455 456 -457 0
-455 -456 0
-455 457 0
-456 -376 -377 0
-456 376 377 0
456 376 -377 0
456 -376 377 0
457 458 -459 0
-457 -458 0
-457 459 0
-458 -378 -379 0
-458 378 379 0
458 378 -379 0
458 -378 379 0
459 460 -461 0
-459 -460 0
-459 461 0
-460 -380 -381 0
-460 380 381 0
460 380 -381 0
460 -380 381 0
461 462 -463 0
-461 -462 0
-461 463 0
-462 -382 -383 0
-462 382 383 0
462 382 -383 0
462 -382 383 0
463 464 -465 0
-463 -464 0
-463 465 0
-464 -384 -385 0
-464 384 385 0
464 384 -385 0
464 -384 385 0
465 -466 479 0
-465 466 0
-465 -479 0
466 467 -468 0
-466 -467 0
-466 468 0
-467 388 402 0
-467 -388 -402 0
467 -388 402 0
467 388 -402 0
468 -469 478 0
-468 469 0
-468 -478 0
469 470 -471 0
-469 -470 0
-469 471 0
-470 -391 -392 0
-470 391 392 0
470 391 -392 0
470 -391 392 0
471 472 -473 0
-471 -472 0
-471 473 0
-472 -393 -394 0
-472 393 394 0
472 393 -394 0
472 -393 394 0
473 -474 477 0
-473 474 0
-473 -477 0
474 475 -476 0
-474 -475 0
-474 476 0
-475 -398 -399 0
-475 398 399 0
475 398 -399 0
475 -398 399 0
476 760 767 -768 401 0
-476 -760 0
-476 -401 0
-476 768 0
-476 -767 0
-477 -395 -397 0
-477 395 397 0
477 395 -397 0
477 -395 397 0
-478 -389 -390 0
-478 389 390 0
478 389 -390 0
478 -389 390 0
-479 -386 -387 0
-479 386 387 0
479 386 -387 0
479 -386 387 0
-480 -368 -369 0
-480 368 369 0
480 368 -369 0
480 -368 369 0
-481 367 403 0
-481 -367 -403 0
481 -367 403 0
481 367 -403 0
-482 483 484 0
-482 -483 -484 0
482 -483 484 0
482 483 -484 0
483 -9 404 0
-483 9 0
-483 -404 0
-484 485 486 0
-484 -485 -486 0
484 -485 486 0
484 485 -486 0
485 -405 406 0
-485 405 0
-485 -406 0
-486 487 488 0
-486 -487 -488 0
486 -487 488 0
486 487 -488 0
487 -407 408 0
-487 407 0
-487 -408 0
-488 489 490 0
-488 -489 -490 0
488 -489 490 0
488 489 -490 0
489 -409 410 0
-489 409 0
-489 -410 0
-490 491 492 0
-490 -491 -492 0
490 -491 492 0
490 491 -492 0
491 -411 412 0
-491 411 0
-491 -412 0
-492 493 494 0
-492 -493 -494 0
492 -493 494 0
492 493 -494 0
493 -413 414 0
-493 413 0
-493 -414 0
-494 495 496 0
-494 -495 -496 0
494 -495 496 0
494 495 -496 0
495 -415 416 0
-495 415 0
-495 -416 0
-496 497 498 0
-496 -497 -498 0
496 -497 498 0
496 497 -498 0
497 -417 418 0
-497 417 0
-497 -418 0
-498 499 500 0
-498 -499 -500 0
498 -499 500 0
498 499 -500 0
499 -419 420 0
-499 419 0
-499 -420 0
-500 501 502 0
-500 -501 -502 0
500 -501 502 0
500 501 -502 0
501 -421 422 0
-501 421 0
-501 -422 0
-502 503 504 0
-502 -503 -504 0
502 -503 504 0
502 503 -504 0
503 -423 424 0
-503 423 0
-503 -424 0
-504 505 506 0
-504 -505 -506 0
504 -505 506 0
504 505 -506 0
505 -425 426 0
-505 425 0
-505 -426 0
-506 507 508 0
-506 -507 -508 0
506 -507 508 0
506 507 -508 0
507 -427 428 0
-507 427 0
-507 -428 0
-508 509 510 0
-508 -509 -510 0
508 -509 510 0
508 509 -510 0
509 -429 430 0
-509 429 0
-509 -430 0
-510 511 512 0
-510 -511 -512 0
510 -511 512 0
510 511 -512 0
511 -431 432 0
-511 431 0
-511 -432 0
-512 513 514 0
-512 -513 -514 0
512 -513 514 0
512 513 -514 0
513 -433 434 0
-513 433 0
-513 -434 0
-514 515 516 0
-514 -515 -516 0
514 -515 516 0
514 515 -516 0
515 -435 436 0
-515 435 0
-515 -436 0
-516 517 518 0
-516 -517 -518 0
516 -517 518 0
516 517 -518 0
517 -437 438 0
-517 437 0
-517 -438 0
-518 519 520 0
-518 -519 -520 0
518 -519 520 0
518 519 -520 0
519 -439 440 0
-519 439 0
-519 -440 0
-520 521 522 0
-520 -521 -522 0
520 -521 522 0
520 521 -522 0
521 -441 442 0
-521 441 0
-521 -442 0
-522 -523 -524 0
-522 523 524 0
522 523 -524 0
522 -523 524 0
523 741 -747 443 0
-523 -443 0
-523 747 0
-523 -741 0
524 -740 525 0
524 740 -525 0
-524 740 525 0
-524 -740 -525 0
-525 741 443 0
525 -741 0
525 -443 0
526 527 -528 0
-526 -527 0
-526 528 0
527 7 -482 0
-527 -7 0
-527 482 0
528 -529 575 0
-528 529 0
-528 -575 0
529 530 -531 0
-529 -530 0
-529 531 0
-530 -446 -447 0
-530 446 447 0
530 446 -447 0
530 -446 447 0
531 532 -533 0
-531 -532 0
-531 533 0
-532 448 481 0
-532 -448 -481 0
532 -448 481 0
532 448 -481 0
533 534 -535 0
-533 -534 0
-533 535 0
-534 449 480 0
-534 -449 -480 0
534 -449 480 0
534 449 -480 0
535 536 -537 0
-535 -536 0
-535 537 0
-536 -450 -451 0
-536 450 451 0
536 450 -451 0
536 -450 451 0
537 538 -539 0
-537 -538 0
-537 539 0
-538 -452 -453 0
-538 452 453 0
538 452 -453 0
538 -452 453 0
539 540 -541 0
-539 -540 0
-539 541 0
-540 -454 -455 0
-540 454 455 0
540 454 -455 0
540 -454 455 0
541 542 -543 0
-541 -542 0
-541 543 0
-542 -456 -457 0
-542 456 457 0
542 456 -457 0
542 -456 457 0
543 544 -545 0
-543 -544 0
-543 545 0
-544 -458 -459 0
-544 458 459 0
544 458 -459 0
544 -458 459 0
545 546 -547 0
-545 -546 0
-545 547 0
-546 -460 -461 0
-546 460 461 0
546 460 -461 0
546 -460 461 0
547 548 -549 0
-547 -548 0
-547 549 0
-548 -462 -463 0
-548 462 463 0
548 462 -463 0
548 -462 463 0
549 550 -551 0
-549 -550 0
-549 551 0
-550 -464 -465 0
-550 464 465 0
550 464 -465 0
550 -464 465 0
551 552 -553 0
-551 -552 0
-551 553 0
-552 466 479 0
-552 -466 -479 0
552 -466 479 0
552 466 -479 0
553 554 -555 0
-553 -554 0
-553 555 0
-554 -467 -468 0
-554 467 468 0
554 467 -468 0
554 -467 468 0
555 556 -557 0
-555 -556 0
-555 557 0
-556 469 478 0
-556 -469 -478 0
556 -469 478 0
556 469 -478 0
557 558 -559 0
-557 -558 0
-557 559 0
-558 -470 -471 0
-558 470 471 0
558 470 -471 0
558 -470 471 0
559 560 -561 0
-559 -560 0
-559 561 0
-560 -472 -473 0
-560 472 473 0
560 472 -473 0
560 -472 473 0
561 562 -563 0
-561 -562 0
-561 563 0
-562 474 477 0
-562 -474 -477 0
562 -474 477 0
562 474 -477 0
563 564 -565 0
-563 -564 0
-563 565 0
-564 -475 -476 0
-564 475 476 0
564 475 -476 0
564 -475 476 0
565 566 -570 0
-565 -566 0
-565 570 0
-566 -567 -568 0
-566 567 568 0
566 567 -568 0
566 -567 568 0
-567 -760 -767 0
-567 -760 -401 0
-567 760 767 401 0
567 760 -767 0
567 760 -401 0
567 -760 767 401 0
568 -768 569 0
-568 768 0
-568 -569 0
-569 767 401 0
569 -767 0
569 -401 0
570 571 -574 0
-570 -571 0
-570 574 0
-571 768 569 0
-571 -761 -569 -572 0
571 -768 569 0
571 -569 572 0
571 761 -569 0
-572 762 767 768 573 0
572 -573 0
572 -768 0
572 -762 0
572 -767 0
-573 765 766 234 0
573 -234 0
573 -766 0
573 -765 0
574 -769 572 0
-574 769 0
-574 -572 0
-575 -8 -445 0
-575 8 445 0
575 8 -445 0
575 -8 445 0
576 -577 617 0
576 577 -617 0
-576 577 617 0
-576 -577 -617 0
-577 578 581 0
-577 -578 -581 0
577 -578 581 0
577 578 -581 0
-578 579 580 0
578 -579 0
578 -580 0
579 -489 490 0
-579 489 0
-579 -490 0
580 -487 488 0
-580 487 0
-580 -488 0
-581 582 614 0
-581 -582 -614 0
581 -582 614 0
581 582 -614 0
582 583 -584 0
582 -583 584 0
-582 -583 -584 0
-582 583 584 0
583 -495 496 0
-583 495 0
-583 -496 0
584 -585 611 0
584 585 -611 0
-584 585 611 0
-584 -585 -611 0
-585 -586 -587 0
-585 586 587 0
585 586 -587 0
585 -586 587 0
586 -501 502 0
-586 501 0
-586 -502 0
587 -588 608 0
587 588 -608 0
-587 588 608 0
-587 -588 -608 0
-588 589 605 0
-588 -589 -605 0
588 -589 605 0
588 589 -605 0
589 -590 591 0
589 590 -591 0
-589 590 591 0
-589 -590 -591 0
590 -511 512 0
-590 511 0
-590 -512 0
-591 592 602 0
-591 -592 -602 0
591 -592 602 0
591 592 -602 0
592 -593 599 0
592 593 -599 0
-592 593 599 0
-592 -593 -599 0
-593 -594 -597 0
-593 594 597 0
593 594 -597 0
593 -594 597 0
-594 595 596 0
594 -595 0
594 -596 0
595 740 741 -747 443 0
-595 -740 0
-595 -443 0
-595 747 0
-595 -741 0
596 -521 522 0
-596 521 0
-596 -522 0
597 -739 598 0
597 739 -598 0
-597 739 598 0
-597 -739 -598 0
-598 740 525 0
598 -740 0
598 -525 0
-599 600 601 0
599 -600 0
599 -601 0
600 -519 520 0
-600 519 0
-600 -520 0
601 -517 518 0
-601 517 0
-601 -518 0
-602 603 604 0
602 -603 0
602 -604 0
603 -515 516 0
-603 515 0
-603 -516 0
604 -513 514 0
-604 513 0
-604 -514 0
-605 606 607 0
605 -606 0
605 -607 0
606 -509 510 0
-606 509 0
-606 -510 0
607 -507 508 0
-607 507 0
-607 -508 0
-608 609 610 0
608 -609 0
608 -610 0
609 -505 506 0
-609 505 0
-609 -506 0
610 -503 504 0
-610 503 0
-610 -504 0
-611 612 613 0
611 -612 0
611 -613 0
612 -499 500 0
-612 499 0
-612 -500 0
613 -497 498 0
-613 497 0
-613 -498 0
-614 615 616 0
614 -615 0
614 -616 0
615 -493 494 0
-615 493 0
-615 -494 0
616 -491 492 0
-616 491 0
-616 -492 0
-617 618 619 0
617 -618 0
617 -619 0
618 -485 486 0
-618 485 0
-618 -486 0
619 -483 484 0
-619 483 0
-619 -484 0
620 -770 -622 0
620 -770 -621 0
-620 770 0
-620 621 622 0
-621 7 482 528 0
-621 -7 -482 528 0
-621 7 -482 -528 0
621 -7 -528 0
621 7 -482 528 0
621 -7 482 0
621 482 -528 0
-622 623 624 0
622 -623 0
622 -624 0
-623 529 575 0
-623 -529 -575 0
623 -529 575 0
623 529 -575 0
-624 770 625 0
-624 530 531 625 0
-624 -530 -531 625 0
624 -625 0
624 -770 -530 531 0
624 -770 530 -531 0
625 -770 -647 0
625 -770 -626 0
625 -770 -627 0
-625 770 0
-625 626 627 647 0
-626 -534 -535 0
-626 534 535 0
626 534 -535 0
626 -534 535 0
-627 536 -538 -539 628 0
-627 536 538 539 628 0
627 -628 0
627 538 -539 0
627 -536 0
627 -538 539 0
-628 770 0
-628 540 541 629 0
-628 -540 -541 629 0
628 -770 -629 0
628 -770 -540 541 0
628 -770 540 -541 0
-629 542 543 630 631 0
-629 -542 -543 630 631 0
629 -631 0
629 -542 543 0
629 -630 0
629 542 -543 0
-630 -544 -545 0
-630 544 545 0
630 544 -545 0
630 -544 545 0
631 -770 -632 0
631 -770 -633 0
631 -770 -548 0
-631 770 0
-631 548 632 633 0
632 -546 547 0
-632 546 0
-632 -547 0
-633 -550 -551 634 635 0
-633 550 551 634 635 0
633 -635 0
633 -550 551 0
633 -634 0
633 550 -551 0
-634 467 468 556 557 0
-634 -467 -468 -556 -557 0
-634 467 468 -556 -557 0
-634 -467 -468 556 557 0
634 467 -468 0
634 -467 468 0
634 -556 557 0
634 556 -557 0
-635 636 637 645 646 0
635 -646 0
635 -636 0
635 -645 0
635 -637 0
-636 -552 -553 0
-636 552 553 0
636 552 -553 0
636 -552 553 0
-637 562 563 638 639 0
637 -639 0
637 -638 0
637 -562 0
637 -563 0
638 -564 565 0
-638 564 0
-638 -565 0
-639 234 640 641 643 0
639 -643 0
639 -234 0
639 -641 0
639 -640 0
-640 769 566 571 0
-640 566 -572 571 0
-640 -769 566 572 -571 0
640 769 -571 0
640 -769 572 571 0
640 -566 0
640 -572 -571 0
-641 769 572 0
-641 -762 -572 -642 0
-641 -769 -572 642 0
641 -769 572 0
641 769 -572 642 0
641 762 -572 -642 0
-642 767 768 573 0
642 -573 0
642 -768 0
642 -767 0
-643 765 766 769 644 0
643 -644 0
643 -769 0
643 -765 0
643 -766 0
-644 767 768 0
644 -767 0
644 -768 0
-645 -558 -559 0
-645 558 559 0
645 558 -559 0
645 -558 559 0
-646 -560 -561 0
-646 560 561 0
646 560 -561 0
646 -560 561 0
-647 -532 -533 0
-647 532 533 0
647 532 -533 0
647 -532 533 0
-648 770 621 623 624 0
-648 -770 621 -623 624 0
-648 -770 621 623 -624 0
648 -621 0
648 -623 -624 0
648 770 -623 0
648 770 -624 0
648 -770 623 624 0
-649 650 701 0
649 -650 0
649 -701 0
-650 -651 0
-650 -691 0
-650 692 700 0
650 651 691 -692 0
650 651 691 -700 0
-651 652 681 682 684 0
651 -684 0
651 -652 0
651 -682 0
651 -681 0
-652 749 653 669 677 0
-652 -749 -653 669 677 0
652 -677 0
652 749 -653 0
652 -669 0
652 -749 653 0
-653 750 654 0
653 -750 0
653 -654 0
-654 751 655 0
654 -751 0
654 -655 0
-655 752 656 0
655 -752 0
655 -656 0
-656 753 657 0
656 -753 0
656 -657 0
-657 754 658 0
657 -754 0
657 -658 0
-658 755 659 0
658 -755 0
658 -659 0
-659 756 660 0
659 -756 0
659 -660 0
-660 757 661 0
660 -757 0
660 -661 0
-661 758 662 0
661 -758 0
661 -662 0
-662 759 663 0
662 -759 0
662 -663 0
-663 760 664 0
663 -760 0
663 -664 0
-664 327 665 0
664 -327 0
664 -665 0
-665 765 666 0
665 -765 0
665 -666 0
-666 766 667 0
666 -766 0
666 -667 0
-667 767 668 0
667 -767 0
667 -668 0
-668 768 769 770 0
668 -768 0
668 -770 0
668 -769 0
-669 739 670 672 0
-669 -739 670 -672 0
669 -670 0
669 -739 672 0
669 739 -672 0
-670 -758 -645 -662 -671 0
-670 758 -645 662 -671 0
-670 758 645 662 671 0
-670 -758 645 -662 671 0
670 -758 662 0
670 758 -662 0
670 -645 671 0
670 645 -671 0
671 -770 637 646 0
-671 770 0
-671 -637 0
-671 -646 0
-672 740 741 742 673 0
672 -673 0
672 -742 0
672 -740 0
672 -741 0
-673 743 744 674 0
673 -674 0
673 -744 0
673 -743 0
-674 745 675 0
674 -745 0
674 -675 0
-675 746 747 748 676 0
675 -676 0
675 -748 0
675 -746 0
675 -747 0
-676 749 653 0
676 -749 0
676 -653 0
-677 -750 -654 678 679 0
-677 750 654 678 679 0
677 -679 0
677 750 -654 0
677 -678 0
677 -750 654 0
678 747 -676 0
678 -746 676 0
678 -747 748 0
678 746 -748 0
-678 746 747 748 676 0
-678 -746 -747 -748 -676 0
-679 751 752 656 680 0
-679 -751 -752 -656 680 0
679 -751 656 0
679 752 -656 0
679 -680 0
679 751 -752 0
680 -759 663 0
680 759 -663 0
-680 759 663 0
-680 -759 -663 0
681 -743 674 0
681 744 -674 0
681 743 -744 0
-681 -743 -744 -674 0
-681 743 744 674 0
-682 745 675 683 0
-682 -745 -675 683 0
682 -683 0
682 745 -675 0
682 -745 675 0
683 741 -673 0
683 -740 673 0
683 -741 742 0
683 740 -742 0
-683 740 741 742 673 0
-683 -740 -741 -742 -673 0
-684 753 754 658 685 0
-684 -753 -754 -658 685 0
684 -753 658 0
684 754 -658 0
684 -685 0
684 753 -754 0
-685 -757 -661 686 687 0
-685 757 661 686 687 0
685 -687 0
685 757 -661 0
685 -686 0
685 -757 661 0
686 -755 659 0
686 755 -659 0
-686 755 659 0
-686 -755 -659 0
-687 760 664 688 0
-687 -760 -664 688 -689 0
687 -664 689 0
687 -760 664 0
687 -688 0
687 760 -664 0
688 764 -666 0
688 -763 666 0
688 -764 765 0
688 763 -765 0
-688 763 764 765 666 0
-688 -763 -764 -765 -666 0
689 -761 -762 -690 0
-689 761 0
-689 762 0
-689 690 0
-690 234 665 0
690 -234 0
690 -665 0
691 -766 667 0
691 766 -667 0
-691 766 667 0
-691 -766 -667 0
692 693 694 -696 0
-692 696 0
-692 -694 0
-692 -693 0
693 -767 668 0
693 767 -668 0
-693 767 668 0
-693 -767 -668 0
694 -768 695 0
694 768 -695 0
-694 768 695 0
-694 -768 -695 0
-695 769 770 0
695 -769 0
695 -770 0
696 697 -698 0
696 -697 -699 0
-696 -697 699 0
-696 697 698 0
697 769 -770 0
697 -769 770 0
-697 -769 -770 0
-697 769 770 0
698 -710 770 0
698 -709 -770 0
-698 710 770 0
-698 709 -770 0
699 -708 770 0
699 -707 -770 0
-699 708 770 0
-699 707 -770 0
700 693 694 697 -699 0
-700 699 0
-700 -697 0
-700 -693 0
-700 -694 0
-701 -651 0
-701 -691 0
-701 702 705 0
701 651 691 -702 0
701 651 691 -705 0
702 767 768 695 -703 0
702 -767 -768 -695 -703 0
-702 -767 695 0
-702 768 -695 0
-702 703 0
-702 767 -768 0
703 697 -704 0
703 -707 770 -697 0
-703 697 704 0
-703 707 -697 0
-703 -770 -697 0
704 -709 770 0
704 -708 -770 0
-704 709 770 0
-704 708 -770 0
705 693 -706 0
-705 -693 0
-705 706 0
706 -707 768 769 770 0
-706 -770 0
-706 -769 0
-706 707 0
-706 -768 0
-771 0
2 0

